[1608, 1608, 1488, 1608, 1400, 1508, 1340, 1314, 1296, 1204, 1200, 1104, 1104, 1032, 912, 912, 912, 912, 780, 834, 730, 680, 680, 660, 444, 452, 412, 318, 306, 258, 246, 228, 248, 208, 198, 180, 162, 148, 148, 152, 132, 130, 128, 130, 132, 128, 132, 126, 128, 126, 124, 118, 122, 122, 122, 122, 122, 122, 118, 118, 118, 118, 118, 118, 116, 116, 116, 118, 118, 118, 118, 118, 118, 118, 118, 118, 118, 120, 118, 118, 118, 118, 118, 118, 118, 116, 116, 116, 116, 116, 116, 114, 114, 116, 116, 116, 116, 116, 116, 118, 116, 116, 116, 116, 116, 118, 118, 116, 112, 118, 120, 120, 120, 112, 116, 116, 116, 120, 120, 120, 120, 118, 120, 116, 120, 120, 114, 114, 112, 116, 120, 120, 120, 118, 120, 120, 120, 118, 116, 120, 120, 120, 120, 122, 120, 120, 118, 118, 120, 118, 118, 116, 120, 118, 118, 116, 120, 116, 118, 120, 120, 118, 118, 118, 120, 114, 118, 118, 118, 118, 116, 116, 116, 116, 116, 120, 118, 118, 120, 120, 120, 120, 120, 120, 120, 120, 120, 120, 118, 118, 118, 120, 120, 118, 120, 118, 118, 118, 118, 118]